
  17    4
  10   10   10   10

   0   0   0   0   0   4 2 3 4 5 
   5  10  10  10  10   3 9 8 6 
   5  10  10  10  10   3 16 10 6 
   3  10  10  10  10   2 8 7 
   2  10  10  10  10   6 16 15 14 13 12 11 
   5  10  10  10  10   1 7 
   2  10  10  10  10   5 15 14 13 12 11 
   8  10  10  10  10   4 14 13 12 11 
   9  10  10  10  10   4 16 13 12 11 
   8  10  10  10  10   1 11 
   7  10  10  10  10   1 17
   3  10  10  10  10   1 17
   2  10  10  10  10   1 17
   4  10  10  10  10   1 17
   9  10  10  10  10   1 17
   4  10  10  10  10   1 17
   0   0   0   0   0   0 
